(set-option :auto-config false)
(set-option :produce-unsat-cores false)
(set-option :smt.mbqi.max_iterations 10000000)
(set-option :smt.relevancy 0)
(declare-fun c0 () Bool)
(define-fun e1 () Bool (not c0))
(declare-fun c2 () (_ BitVec 64))
(define-fun e3 () (_ BitVec 64) (_ bv1024 64))
(define-fun e4 () Bool (bvult c2 e3))
(define-fun e5 () (_ BitVec 64) (_ bv2 64))
(declare-fun c6 ((_ BitVec 64)) (_ BitVec 64))
(define-fun e7 () (_ BitVec 64) (c6 c2))
(define-fun e8 () Bool (= e5 e7))
(define-fun e9 () Bool (and e4 e8))
(define-fun e10 () (_ BitVec 64) (_ bv1 64))
(declare-fun c11 ((_ BitVec 64) (_ BitVec 64)) (_ BitVec 64))
(declare-fun c12 ((_ BitVec 64)) (_ BitVec 64))
(define-fun e13 () (_ BitVec 64) (c12 c2))
(define-fun e14 () (_ BitVec 64) (c11 e13 e5))
(define-fun e15 () Bool (= e10 e14))
(define-fun e16 () (_ BitVec 64) (_ bv0 64))
(define-fun e17 () (_ BitVec 64) (c11 c2 e16))
(define-fun e18 () Bool (= e16 e17))
(define-fun e19 () Bool (and e1 e9 e15 e18))
(define-fun e20 () Bool (not e9))
(define-fun e21 () Bool (not e15))
(define-fun e22 () Bool (not e18))
(define-fun e23 () Bool (and e15 e22))
(define-fun e24 () Bool (or e21 e23))
(define-fun e25 () Bool (and e9 e24))
(define-fun e26 () Bool (or e20 e25))
(define-fun e27 () Bool (and e1 e26))
(define-fun e28 () Bool (or c0 e27))
(define-fun e29 () Bool (or e19 e28))
(define-fun e30 () Bool (not e29))
(assert e30)
(check-sat)
